;; Preprocessed for Astral solver
(set-info :status unsat)
;; variables
(declare-const x0 Loc)
(declare-const x1 Loc)
(declare-const x2 Loc)
(declare-const x3 Loc)
(declare-const x4 Loc)
(declare-const x5 Loc)
(declare-const x6 Loc)
(declare-const x7 Loc)
(declare-const x8 Loc)
(declare-const x9 Loc)
(declare-const x10 Loc)
(declare-const x11 Loc)
(declare-const x12 Loc)
(declare-const x13 Loc)
(declare-const x14 Loc)
(declare-const x15 Loc)
(declare-const x16 Loc)
(declare-const x17 Loc)
(declare-const x18 Loc)
(declare-const x19 Loc)
(declare-const x20 Loc)
(declare-const x21 Loc)
(declare-const x22 Loc)
(declare-const x23 Loc)

(assert 
		(sep 
			(= nil nil)
		(sep 
			(pto x15 x5)
			(pto x2 x17)
			(ls x13 x19 )
			(pto x12 x7)
			(ls x6 x14 )
			(pto x3 x15)
			(pto x7 x14)
			(pto x14 x16)
			(pto x4 x7)
			(ls x16 x12 )
			(ls x17 x3 )
			(pto x10 x3)
			(pto x11 x18)
			(pto x18 x6)
			(pto x19 x2)
			(pto x9 x4)
			(pto x1 x5)
			(ls x8 x4 )
			(pto x5 x15)
		)

		)

)

(assert (not 
		(sep 
			(ls x12 x7 )
			(ls x1 x5 )
			(ls x9 x4 )
			(ls x11 x18 )
			(ls x18 x14 )
			(ls x13 x19 )
			(ls x8 x12 )
			(ls x5 x15 )
			(ls x19 x3 )
			(ls x10 x5 )
		)

))

(check-sat)
